c The Problem describing the plan needed for the murder mystery story
p cnf 21 44
-1 0
-2 4 0
-2 -8 0
-2 -11 0
-2 2 0
-3 7 0
-3 -8 0
-3 -11 0
-3 2 0
-5 0
-4 2 0
-4 -9 0
-4 -12 0
-4 3 0
-6 8 0
-6 -9 0
-6 -12 0
-6 3 0
-9 0
-7 3 0
-7 -10 0
-7 -13 0
-7 4 0
-8 6 0
-8 -10 0
-8 -13 0
-8 4 0
2 3 0
4 6 0
7 8 0
-9 -1 0
-9 -1 0
-9 18 0
9 0
-8 0
-9 0
-10 0
-11 0
-12 0
-13 0
14 0
15 0
16 0
 0
